(set-info :smt-lib-version 2.6)
(set-logic QF_S)
(set-info :source |
Generated by: Murphy Berzish, Mitja Kulczynski, Federico Mora, Florin Manea, Joel Day, Dirk Nowotka, Vijay Ganesh, Zhengyang Lu
Generated on: 2020-10-01
Description: Translated from a collection of real-world regex queries, AutomataArk, collected by Loris D’Antoni and Fang Wang: https://github.com/lorisdanto/automatark
Application: Evaluate solvers on real-world regex queries
Target solver: Z3str3RE, CVC4, OSTRICH, Z3seq, Z3str3, Z3-Trau
Publications: Berzish, M., Kulczynski, M., Mora, F., Manea, F., Day, J. D., Nowotka, D., & Ganesh, V. (2021, July). An SMT solver for regular expressions and linear arithmetic over string length. In CAV 2021.
|)
(set-info :license "https://creativecommons.org/licenses/by/4.0/")
(set-info :category "industrial")
(set-info :status unsat)

(declare-const X String)
(assert (str.in_re X (re.++ (str.to_re "pjpoptwql/rlnj") (re.+ (re.range "0" "9")) (str.to_re "waiting") (re.+ (re.range "0" "9")) (str.to_re "ocllceclbhs/gth") (re.+ (re.union (re.range "0" "9") (re.range "A" "Z") (re.range "a" "z") (str.to_re "_"))) (str.to_re "gdvsotuqwsg/dxt.hdUser-Agent:\u{a}"))))
(assert (not (str.in_re X (re.union (re.++ (re.opt (re.++ (re.opt (str.to_re "+")) ((_ re.loop 2 2) (re.range "0" "9")) (str.to_re "-"))) (re.opt (str.to_re "(")) ((_ re.loop 3 5) (re.range "0" "9")) (re.opt (str.to_re ")")) (str.to_re "-")) (re.++ ((_ re.loop 3 5) (re.range "0" "9")) ((_ re.loop 1 1) ((_ re.loop 5 8) (re.range "0" "9"))) (str.to_re "\u{a}"))))))
(assert (str.in_re X (re.++ ((_ re.loop 1 1) (re.range "7" "9")) ((_ re.loop 9 9) (re.range "0" "9")) (str.to_re "\u{a}"))))
(assert (str.in_re X (re.++ (re.union (re.++ (str.to_re "1") (re.union (str.to_re "0") (str.to_re "1"))) (re.range "0" "9")) (str.to_re ":") (re.range "0" "5") (re.range "0" "9") (re.opt (re.++ (str.to_re ":") (re.range "0" "5") (re.range "0" "9"))) (re.opt (re.union (str.to_re " ") (str.to_re "\u{9}") (str.to_re "\u{a}") (str.to_re "\u{c}") (str.to_re "\u{d}"))) (re.opt (re.++ (re.union (str.to_re "a") (str.to_re "p") (str.to_re "A") (str.to_re "P")) (re.union (str.to_re "M") (str.to_re "m")))) (str.to_re "\u{a}"))))
(assert (str.in_re X (re.++ (str.to_re "Iterenet") (re.+ (re.union (str.to_re " ") (str.to_re "\u{9}") (str.to_re "\u{a}") (str.to_re "\u{c}") (str.to_re "\u{d}"))) (str.to_re "www.mirarsearch.comHost:\u{a}"))))
(check-sat)

(exit)
